c dimacs generated by FastEx
c f701 92
c f710 91
c f711 90
c f801 95
c f810 94
c f811 93
c g71 63
c g81 64
c s712 65
c s713 66
c s714 68
c s715 71
c s716 96
c s723 67
c s724 69
c s725 72
c s726 97
c s734 70
c s735 73
c s736 98
c s745 74
c s746 99
c s756 100
c s812 75
c s813 76
c s814 78
c s815 81
c s816 101
c s817 85
c s823 77
c s824 79
c s825 82
c s826 102
c s827 86
c s834 80
c s835 83
c s836 103
c s837 87
c s845 84
c s846 104
c s847 88
c s856 105
c s857 89
c s867 106
c x71 1
c x710 10
c x711 11
c x712 12
c x713 13
c x714 14
c x715 15
c x716 16
c x717 17
c x718 18
c x719 19
c x72 2
c x720 20
c x721 21
c x722 22
c x723 23
c x724 24
c x725 25
c x726 26
c x727 27
c x728 28
c x729 29
c x73 3
c x730 30
c x731 31
c x74 4
c x75 5
c x76 6
c x77 7
c x78 8
c x79 9
c x81 32
c x810 41
c x811 42
c x812 43
c x813 44
c x814 45
c x815 46
c x816 47
c x817 48
c x818 49
c x819 50
c x82 33
c x820 51
c x821 52
c x822 53
c x823 54
c x824 55
c x825 56
c x826 57
c x827 58
c x828 59
c x829 60
c x83 34
c x830 61
c x831 62
c x84 35
c x85 36
c x86 37
c x87 38
c x88 39
c x89 40
p cnf 106 2329
-65 -1 0
-65 -2 0
-65 -3 0
-65 -4 0
-65 -5 0
-65 -6 0
-65 -7 0
-65 8 -92 0
-65 -8 92 0
-65 9 -92 0
-65 -9 92 0
-65 10 -92 0
-65 -10 92 0
-65 11 -92 0
-65 -11 92 0
-65 12 -92 0
-65 -12 92 0
-65 13 -92 0
-65 -13 92 0
-65 14 -92 0
-65 -14 92 0
-65 15 -92 0
-65 -15 92 0
-65 16 -91 0
-65 -16 91 0
-65 17 -91 0
-65 -17 91 0
-65 18 -91 0
-65 -18 91 0
-65 19 -91 0
-65 -19 91 0
-65 20 -91 0
-65 -20 91 0
-65 21 -91 0
-65 -21 91 0
-65 22 -91 0
-65 -22 91 0
-65 23 -91 0
-65 -23 91 0
-65 24 -90 0
-65 -24 90 0
-65 25 -90 0
-65 -25 90 0
-65 26 -90 0
-65 -26 90 0
-65 27 -90 0
-65 -27 90 0
-65 28 -90 0
-65 -28 90 0
-65 29 -90 0
-65 -29 90 0
-65 30 -90 0
-65 -30 90 0
-65 31 -90 0
-65 -31 90 0
-66 -1 0
-66 -2 0
-66 -3 0
-66 4 -92 0
-66 -4 92 0
-66 5 -92 0
-66 -5 92 0
-66 6 -92 0
-66 -6 92 0
-66 7 -92 0
-66 -7 92 0
-66 -8 0
-66 -9 0
-66 -10 0
-66 -11 0
-66 12 -92 0
-66 -12 92 0
-66 13 -92 0
-66 -13 92 0
-66 14 -92 0
-66 -14 92 0
-66 15 -92 0
-66 -15 92 0
-66 16 -91 0
-66 -16 91 0
-66 17 -91 0
-66 -17 91 0
-66 18 -91 0
-66 -18 91 0
-66 19 -91 0
-66 -19 91 0
-66 20 -90 0
-66 -20 90 0
-66 21 -90 0
-66 -21 90 0
-66 22 -90 0
-66 -22 90 0
-66 23 -90 0
-66 -23 90 0
-66 24 -91 0
-66 -24 91 0
-66 25 -91 0
-66 -25 91 0
-66 26 -91 0
-66 -26 91 0
-66 27 -91 0
-66 -27 91 0
-66 28 -90 0
-66 -28 90 0
-66 29 -90 0
-66 -29 90 0
-66 30 -90 0
-66 -30 90 0
-66 31 -90 0
-66 -31 90 0
-67 -1 0
-67 -2 0
-67 -3 0
-67 4 -92 0
-67 -4 92 0
-67 5 -92 0
-67 -5 92 0
-67 6 -92 0
-67 -6 92 0
-67 7 -92 0
-67 -7 92 0
-67 8 -91 0
-67 -8 91 0
-67 9 -91 0
-67 -9 91 0
-67 10 -91 0
-67 -10 91 0
-67 11 -91 0
-67 -11 91 0
-67 12 -90 0
-67 -12 90 0
-67 13 -90 0
-67 -13 90 0
-67 14 -90 0
-67 -14 90 0
-67 15 -90 0
-67 -15 90 0
-67 -16 0
-67 -17 0
-67 -18 0
-67 -19 0
-67 20 -92 0
-67 -20 92 0
-67 21 -92 0
-67 -21 92 0
-67 22 -92 0
-67 -22 92 0
-67 23 -92 0
-67 -23 92 0
-67 24 -91 0
-67 -24 91 0
-67 25 -91 0
-67 -25 91 0
-67 26 -91 0
-67 -26 91 0
-67 27 -91 0
-67 -27 91 0
-67 28 -90 0
-67 -28 90 0
-67 29 -90 0
-67 -29 90 0
-67 30 -90 0
-67 -30 90 0
-67 31 -90 0
-67 -31 90 0
-68 -1 0
-68 2 -92 0
-68 -2 92 0
-68 3 -92 0
-68 -3 92 0
-68 -4 0
-68 -5 0
-68 6 -92 0
-68 -6 92 0
-68 7 -92 0
-68 -7 92 0
-68 -8 0
-68 -9 0
-68 10 -92 0
-68 -10 92 0
-68 11 -92 0
-68 -11 92 0
-68 -12 0
-68 -13 0
-68 14 -92 0
-68 -14 92 0
-68 15 -92 0
-68 -15 92 0
-68 16 -91 0
-68 -16 91 0
-68 17 -91 0
-68 -17 91 0
-68 18 -90 0
-68 -18 90 0
-68 19 -90 0
-68 -19 90 0
-68 20 -91 0
-68 -20 91 0
-68 21 -91 0
-68 -21 91 0
-68 22 -90 0
-68 -22 90 0
-68 23 -90 0
-68 -23 90 0
-68 24 -91 0
-68 -24 91 0
-68 25 -91 0
-68 -25 91 0
-68 26 -90 0
-68 -26 90 0
-68 27 -90 0
-68 -27 90 0
-68 28 -91 0
-68 -28 91 0
-68 29 -91 0
-68 -29 91 0
-68 30 -90 0
-68 -30 90 0
-68 31 -90 0
-68 -31 90 0
-69 -1 0
-69 2 -92 0
-69 -2 92 0
-69 3 -92 0
-69 -3 92 0
-69 -4 0
-69 -5 0
-69 6 -92 0
-69 -6 92 0
-69 7 -92 0
-69 -7 92 0
-69 8 -91 0
-69 -8 91 0
-69 9 -91 0
-69 -9 91 0
-69 10 -90 0
-69 -10 90 0
-69 11 -90 0
-69 -11 90 0
-69 12 -91 0
-69 -12 91 0
-69 13 -91 0
-69 -13 91 0
-69 14 -90 0
-69 -14 90 0
-69 15 -90 0
-69 -15 90 0
-69 -16 0
-69 -17 0
-69 18 -92 0
-69 -18 92 0
-69 19 -92 0
-69 -19 92 0
-69 -20 0
-69 -21 0
-69 22 -92 0
-69 -22 92 0
-69 23 -92 0
-69 -23 92 0
-69 24 -91 0
-69 -24 91 0
-69 25 -91 0
-69 -25 91 0
-69 26 -90 0
-69 -26 90 0
-69 27 -90 0
-69 -27 90 0
-69 28 -91 0
-69 -28 91 0
-69 29 -91 0
-69 -29 91 0
-69 30 -90 0
-69 -30 90 0
-69 31 -90 0
-69 -31 90 0
-70 -1 0
-70 2 -92 0
-70 -2 92 0
-70 3 -92 0
-70 -3 92 0
-70 4 -91 0
-70 -4 91 0
-70 5 -91 0
-70 -5 91 0
-70 6 -90 0
-70 -6 90 0
-70 7 -90 0
-70 -7 90 0
-70 -8 0
-70 -9 0
-70 10 -92 0
-70 -10 92 0
-70 11 -92 0
-70 -11 92 0
-70 12 -91 0
-70 -12 91 0
-70 13 -91 0
-70 -13 91 0
-70 14 -90 0
-70 -14 90 0
-70 15 -90 0
-70 -15 90 0
-70 -16 0
-70 -17 0
-70 18 -92 0
-70 -18 92 0
-70 19 -92 0
-70 -19 92 0
-70 20 -91 0
-70 -20 91 0
-70 21 -91 0
-70 -21 91 0
-70 22 -90 0
-70 -22 90 0
-70 23 -90 0
-70 -23 90 0
-70 -24 0
-70 -25 0
-70 26 -92 0
-70 -26 92 0
-70 27 -92 0
-70 -27 92 0
-70 28 -91 0
-70 -28 91 0
-70 29 -91 0
-70 -29 91 0
-70 30 -90 0
-70 -30 90 0
-70 31 -90 0
-70 -31 90 0
-71 1 -92 0
-71 -1 92 0
-71 -2 0
-71 3 -92 0
-71 -3 92 0
-71 -4 0
-71 5 -92 0
-71 -5 92 0
-71 -6 0
-71 7 -92 0
-71 -7 92 0
-71 -8 0
-71 9 -92 0
-71 -9 92 0
-71 -10 0
-71 11 -92 0
-71 -11 92 0
-71 -12 0
-71 13 -92 0
-71 -13 92 0
-71 -14 0
-71 15 -92 0
-71 -15 92 0
-71 16 -91 0
-71 -16 91 0
-71 17 -90 0
-71 -17 90 0
-71 18 -91 0
-71 -18 91 0
-71 19 -90 0
-71 -19 90 0
-71 20 -91 0
-71 -20 91 0
-71 21 -90 0
-71 -21 90 0
-71 22 -91 0
-71 -22 91 0
-71 23 -90 0
-71 -23 90 0
-71 24 -91 0
-71 -24 91 0
-71 25 -90 0
-71 -25 90 0
-71 26 -91 0
-71 -26 91 0
-71 27 -90 0
-71 -27 90 0
-71 28 -91 0
-71 -28 91 0
-71 29 -90 0
-71 -29 90 0
-71 30 -91 0
-71 -30 91 0
-71 31 -90 0
-71 -31 90 0
-72 1 -92 0
-72 -1 92 0
-72 -2 0
-72 3 -92 0
-72 -3 92 0
-72 -4 0
-72 5 -92 0
-72 -5 92 0
-72 -6 0
-72 7 -92 0
-72 -7 92 0
-72 8 -91 0
-72 -8 91 0
-72 9 -90 0
-72 -9 90 0
-72 10 -91 0
-72 -10 91 0
-72 11 -90 0
-72 -11 90 0
-72 12 -91 0
-72 -12 91 0
-72 13 -90 0
-72 -13 90 0
-72 14 -91 0
-72 -14 91 0
-72 15 -90 0
-72 -15 90 0
-72 -16 0
-72 17 -92 0
-72 -17 92 0
-72 -18 0
-72 19 -92 0
-72 -19 92 0
-72 -20 0
-72 21 -92 0
-72 -21 92 0
-72 -22 0
-72 23 -92 0
-72 -23 92 0
-72 24 -91 0
-72 -24 91 0
-72 25 -90 0
-72 -25 90 0
-72 26 -91 0
-72 -26 91 0
-72 27 -90 0
-72 -27 90 0
-72 28 -91 0
-72 -28 91 0
-72 29 -90 0
-72 -29 90 0
-72 30 -91 0
-72 -30 91 0
-72 31 -90 0
-72 -31 90 0
-73 1 -92 0
-73 -1 92 0
-73 -2 0
-73 3 -92 0
-73 -3 92 0
-73 4 -91 0
-73 -4 91 0
-73 5 -90 0
-73 -5 90 0
-73 6 -91 0
-73 -6 91 0
-73 7 -90 0
-73 -7 90 0
-73 -8 0
-73 9 -92 0
-73 -9 92 0
-73 -10 0
-73 11 -92 0
-73 -11 92 0
-73 12 -91 0
-73 -12 91 0
-73 13 -90 0
-73 -13 90 0
-73 14 -91 0
-73 -14 91 0
-73 15 -90 0
-73 -15 90 0
-73 -16 0
-73 17 -92 0
-73 -17 92 0
-73 -18 0
-73 19 -92 0
-73 -19 92 0
-73 20 -91 0
-73 -20 91 0
-73 21 -90 0
-73 -21 90 0
-73 22 -91 0
-73 -22 91 0
-73 23 -90 0
-73 -23 90 0
-73 -24 0
-73 25 -92 0
-73 -25 92 0
-73 -26 0
-73 27 -92 0
-73 -27 92 0
-73 28 -91 0
-73 -28 91 0
-73 29 -90 0
-73 -29 90 0
-73 30 -91 0
-73 -30 91 0
-73 31 -90 0
-73 -31 90 0
-74 1 -92 0
-74 -1 92 0
-74 2 -91 0
-74 -2 91 0
-74 3 -90 0
-74 -3 90 0
-74 -4 0
-74 5 -92 0
-74 -5 92 0
-74 6 -91 0
-74 -6 91 0
-74 7 -90 0
-74 -7 90 0
-74 -8 0
-74 9 -92 0
-74 -9 92 0
-74 10 -91 0
-74 -10 91 0
-74 11 -90 0
-74 -11 90 0
-74 -12 0
-74 13 -92 0
-74 -13 92 0
-74 14 -91 0
-74 -14 91 0
-74 15 -90 0
-74 -15 90 0
-74 -16 0
-74 17 -92 0
-74 -17 92 0
-74 18 -91 0
-74 -18 91 0
-74 19 -90 0
-74 -19 90 0
-74 -20 0
-74 21 -92 0
-74 -21 92 0
-74 22 -91 0
-74 -22 91 0
-74 23 -90 0
-74 -23 90 0
-74 -24 0
-74 25 -92 0
-74 -25 92 0
-74 26 -91 0
-74 -26 91 0
-74 27 -90 0
-74 -27 90 0
-74 -28 0
-74 29 -92 0
-74 -29 92 0
-74 30 -91 0
-74 -30 91 0
-74 31 -90 0
-74 -31 90 0
-96 -1 0
-96 -2 0
-96 -3 0
-96 -4 0
-96 -5 0
-96 -6 0
-96 -7 0
-96 8 -92 0
-96 -8 92 0
-96 9 -92 0
-96 -9 92 0
-96 10 -92 0
-96 -10 92 0
-96 -11 0
-96 12 -92 0
-96 -12 92 0
-96 -13 0
-96 -14 0
-96 15 -92 0
-96 -15 92 0
-96 16 -91 0
-96 -16 91 0
-96 17 -91 0
-96 -17 91 0
-96 18 -91 0
-96 -18 91 0
-96 19 -91 0
-96 -19 91 0
-96 20 -91 0
-96 -20 91 0
-96 21 -91 0
-96 -21 91 0
-96 22 -91 0
-96 -22 91 0
-96 23 -91 0
-96 -23 91 0
-96 24 -90 0
-96 -24 90 0
-96 25 -90 0
-96 -25 90 0
-96 26 -90 0
-96 -26 90 0
-96 27 -91 0
-96 -27 91 0
-96 28 -90 0
-96 -28 90 0
-96 29 -91 0
-96 -29 91 0
-96 30 -91 0
-96 -30 91 0
-96 31 -90 0
-96 -31 90 0
-97 -1 0
-97 -2 0
-97 -3 0
-97 -4 0
-97 -5 0
-97 -6 0
-97 -7 0
-97 8 -90 0
-97 -8 90 0
-97 9 -90 0
-97 -9 90 0
-97 10 -90 0
-97 -10 90 0
-97 11 -91 0
-97 -11 91 0
-97 12 -90 0
-97 -12 90 0
-97 13 -91 0
-97 -13 91 0
-97 14 -91 0
-97 -14 91 0
-97 15 -90 0
-97 -15 90 0
-97 -16 0
-97 -17 0
-97 -18 0
-97 -19 0
-97 -20 0
-97 -21 0
-97 -22 0
-97 -23 0
-97 24 -90 0
-97 -24 90 0
-97 25 -90 0
-97 -25 90 0
-97 26 -90 0
-97 -26 90 0
-97 27 -91 0
-97 -27 91 0
-97 28 -90 0
-97 -28 90 0
-97 29 -91 0
-97 -29 91 0
-97 30 -91 0
-97 -30 91 0
-97 31 -90 0
-97 -31 90 0
-98 -1 0
-98 -2 0
-98 -3 0
-98 4 -91 0
-98 -4 91 0
-98 5 -91 0
-98 -5 91 0
-98 6 -91 0
-98 -6 91 0
-98 7 -91 0
-98 -7 91 0
-98 8 -92 0
-98 -8 92 0
-98 9 -92 0
-98 -9 92 0
-98 10 -92 0
-98 -10 92 0
-98 -11 0
-98 12 -90 0
-98 -12 90 0
-98 13 -91 0
-98 -13 91 0
-98 14 -91 0
-98 -14 91 0
-98 15 -90 0
-98 -15 90 0
-98 -16 0
-98 -17 0
-98 -18 0
-98 -19 0
-98 20 -91 0
-98 -20 91 0
-98 21 -91 0
-98 -21 91 0
-98 22 -91 0
-98 -22 91 0
-98 23 -91 0
-98 -23 91 0
-98 24 -92 0
-98 -24 92 0
-98 25 -92 0
-98 -25 92 0
-98 26 -92 0
-98 -26 92 0
-98 -27 0
-98 28 -90 0
-98 -28 90 0
-98 29 -91 0
-98 -29 91 0
-98 30 -91 0
-98 -30 91 0
-98 31 -90 0
-98 -31 90 0
-99 -1 0
-99 2 -91 0
-99 -2 91 0
-99 3 -91 0
-99 -3 91 0
-99 -4 0
-99 -5 0
-99 6 -91 0
-99 -6 91 0
-99 7 -91 0
-99 -7 91 0
-99 8 -92 0
-99 -8 92 0
-99 9 -92 0
-99 -9 92 0
-99 10 -90 0
-99 -10 90 0
-99 11 -91 0
-99 -11 91 0
-99 12 -92 0
-99 -12 92 0
-99 -13 0
-99 14 -91 0
-99 -14 91 0
-99 15 -90 0
-99 -15 90 0
-99 -16 0
-99 -17 0
-99 18 -91 0
-99 -18 91 0
-99 19 -91 0
-99 -19 91 0
-99 -20 0
-99 -21 0
-99 22 -91 0
-99 -22 91 0
-99 23 -91 0
-99 -23 91 0
-99 24 -92 0
-99 -24 92 0
-99 25 -92 0
-99 -25 92 0
-99 26 -90 0
-99 -26 90 0
-99 27 -91 0
-99 -27 91 0
-99 28 -92 0
-99 -28 92 0
-99 -29 0
-99 30 -91 0
-99 -30 91 0
-99 31 -90 0
-99 -31 90 0
-100 1 -91 0
-100 -1 91 0
-100 -2 0
-100 3 -91 0
-100 -3 91 0
-100 -4 0
-100 5 -91 0
-100 -5 91 0
-100 -6 0
-100 7 -91 0
-100 -7 91 0
-100 8 -92 0
-100 -8 92 0
-100 9 -90 0
-100 -9 90 0
-100 10 -92 0
-100 -10 92 0
-100 11 -91 0
-100 -11 91 0
-100 12 -92 0
-100 -12 92 0
-100 13 -91 0
-100 -13 91 0
-100 -14 0
-100 15 -90 0
-100 -15 90 0
-100 -16 0
-100 17 -91 0
-100 -17 91 0
-100 -18 0
-100 19 -91 0
-100 -19 91 0
-100 -20 0
-100 21 -91 0
-100 -21 91 0
-100 -22 0
-100 23 -91 0
-100 -23 91 0
-100 24 -92 0
-100 -24 92 0
-100 25 -90 0
-100 -25 90 0
-100 26 -92 0
-100 -26 92 0
-100 27 -91 0
-100 -27 91 0
-100 28 -92 0
-100 -28 92 0
-100 29 -91 0
-100 -29 91 0
-100 -30 0
-100 31 -90 0
-100 -31 90 0
-75 -32 0
-75 -33 0
-75 -34 0
-75 -35 0
-75 -36 0
-75 -37 0
-75 -38 0
-75 39 -95 0
-75 -39 95 0
-75 40 -95 0
-75 -40 95 0
-75 41 -95 0
-75 -41 95 0
-75 42 -95 0
-75 -42 95 0
-75 43 -95 0
-75 -43 95 0
-75 44 -95 0
-75 -44 95 0
-75 45 -95 0
-75 -45 95 0
-75 46 -95 0
-75 -46 95 0
-75 47 -94 0
-75 -47 94 0
-75 48 -94 0
-75 -48 94 0
-75 49 -94 0
-75 -49 94 0
-75 50 -94 0
-75 -50 94 0
-75 51 -94 0
-75 -51 94 0
-75 52 -94 0
-75 -52 94 0
-75 53 -94 0
-75 -53 94 0
-75 54 -94 0
-75 -54 94 0
-75 55 -93 0
-75 -55 93 0
-75 56 -93 0
-75 -56 93 0
-75 57 -93 0
-75 -57 93 0
-75 58 -93 0
-75 -58 93 0
-75 59 -93 0
-75 -59 93 0
-75 60 -93 0
-75 -60 93 0
-75 61 -93 0
-75 -61 93 0
-75 62 -93 0
-75 -62 93 0
-76 -32 0
-76 -33 0
-76 -34 0
-76 35 -95 0
-76 -35 95 0
-76 36 -95 0
-76 -36 95 0
-76 37 -95 0
-76 -37 95 0
-76 38 -95 0
-76 -38 95 0
-76 -39 0
-76 -40 0
-76 -41 0
-76 -42 0
-76 43 -95 0
-76 -43 95 0
-76 44 -95 0
-76 -44 95 0
-76 45 -95 0
-76 -45 95 0
-76 46 -95 0
-76 -46 95 0
-76 47 -94 0
-76 -47 94 0
-76 48 -94 0
-76 -48 94 0
-76 49 -94 0
-76 -49 94 0
-76 50 -94 0
-76 -50 94 0
-76 51 -93 0
-76 -51 93 0
-76 52 -93 0
-76 -52 93 0
-76 53 -93 0
-76 -53 93 0
-76 54 -93 0
-76 -54 93 0
-76 55 -94 0
-76 -55 94 0
-76 56 -94 0
-76 -56 94 0
-76 57 -94 0
-76 -57 94 0
-76 58 -94 0
-76 -58 94 0
-76 59 -93 0
-76 -59 93 0
-76 60 -93 0
-76 -60 93 0
-76 61 -93 0
-76 -61 93 0
-76 62 -93 0
-76 -62 93 0
-77 -32 0
-77 -33 0
-77 -34 0
-77 35 -95 0
-77 -35 95 0
-77 36 -95 0
-77 -36 95 0
-77 37 -95 0
-77 -37 95 0
-77 38 -95 0
-77 -38 95 0
-77 39 -94 0
-77 -39 94 0
-77 40 -94 0
-77 -40 94 0
-77 41 -94 0
-77 -41 94 0
-77 42 -94 0
-77 -42 94 0
-77 43 -93 0
-77 -43 93 0
-77 44 -93 0
-77 -44 93 0
-77 45 -93 0
-77 -45 93 0
-77 46 -93 0
-77 -46 93 0
-77 -47 0
-77 -48 0
-77 -49 0
-77 -50 0
-77 51 -95 0
-77 -51 95 0
-77 52 -95 0
-77 -52 95 0
-77 53 -95 0
-77 -53 95 0
-77 54 -95 0
-77 -54 95 0
-77 55 -94 0
-77 -55 94 0
-77 56 -94 0
-77 -56 94 0
-77 57 -94 0
-77 -57 94 0
-77 58 -94 0
-77 -58 94 0
-77 59 -93 0
-77 -59 93 0
-77 60 -93 0
-77 -60 93 0
-77 61 -93 0
-77 -61 93 0
-77 62 -93 0
-77 -62 93 0
-78 -32 0
-78 33 -95 0
-78 -33 95 0
-78 34 -95 0
-78 -34 95 0
-78 -35 0
-78 -36 0
-78 37 -95 0
-78 -37 95 0
-78 38 -95 0
-78 -38 95 0
-78 -39 0
-78 -40 0
-78 41 -95 0
-78 -41 95 0
-78 42 -95 0
-78 -42 95 0
-78 -43 0
-78 -44 0
-78 45 -95 0
-78 -45 95 0
-78 46 -95 0
-78 -46 95 0
-78 47 -94 0
-78 -47 94 0
-78 48 -94 0
-78 -48 94 0
-78 49 -93 0
-78 -49 93 0
-78 50 -93 0
-78 -50 93 0
-78 51 -94 0
-78 -51 94 0
-78 52 -94 0
-78 -52 94 0
-78 53 -93 0
-78 -53 93 0
-78 54 -93 0
-78 -54 93 0
-78 55 -94 0
-78 -55 94 0
-78 56 -94 0
-78 -56 94 0
-78 57 -93 0
-78 -57 93 0
-78 58 -93 0
-78 -58 93 0
-78 59 -94 0
-78 -59 94 0
-78 60 -94 0
-78 -60 94 0
-78 61 -93 0
-78 -61 93 0
-78 62 -93 0
-78 -62 93 0
-79 -32 0
-79 33 -95 0
-79 -33 95 0
-79 34 -95 0
-79 -34 95 0
-79 -35 0
-79 -36 0
-79 37 -95 0
-79 -37 95 0
-79 38 -95 0
-79 -38 95 0
-79 39 -94 0
-79 -39 94 0
-79 40 -94 0
-79 -40 94 0
-79 41 -93 0
-79 -41 93 0
-79 42 -93 0
-79 -42 93 0
-79 43 -94 0
-79 -43 94 0
-79 44 -94 0
-79 -44 94 0
-79 45 -93 0
-79 -45 93 0
-79 46 -93 0
-79 -46 93 0
-79 -47 0
-79 -48 0
-79 49 -95 0
-79 -49 95 0
-79 50 -95 0
-79 -50 95 0
-79 -51 0
-79 -52 0
-79 53 -95 0
-79 -53 95 0
-79 54 -95 0
-79 -54 95 0
-79 55 -94 0
-79 -55 94 0
-79 56 -94 0
-79 -56 94 0
-79 57 -93 0
-79 -57 93 0
-79 58 -93 0
-79 -58 93 0
-79 59 -94 0
-79 -59 94 0
-79 60 -94 0
-79 -60 94 0
-79 61 -93 0
-79 -61 93 0
-79 62 -93 0
-79 -62 93 0
-80 -32 0
-80 33 -95 0
-80 -33 95 0
-80 34 -95 0
-80 -34 95 0
-80 35 -94 0
-80 -35 94 0
-80 36 -94 0
-80 -36 94 0
-80 37 -93 0
-80 -37 93 0
-80 38 -93 0
-80 -38 93 0
-80 -39 0
-80 -40 0
-80 41 -95 0
-80 -41 95 0
-80 42 -95 0
-80 -42 95 0
-80 43 -94 0
-80 -43 94 0
-80 44 -94 0
-80 -44 94 0
-80 45 -93 0
-80 -45 93 0
-80 46 -93 0
-80 -46 93 0
-80 -47 0
-80 -48 0
-80 49 -95 0
-80 -49 95 0
-80 50 -95 0
-80 -50 95 0
-80 51 -94 0
-80 -51 94 0
-80 52 -94 0
-80 -52 94 0
-80 53 -93 0
-80 -53 93 0
-80 54 -93 0
-80 -54 93 0
-80 -55 0
-80 -56 0
-80 57 -95 0
-80 -57 95 0
-80 58 -95 0
-80 -58 95 0
-80 59 -94 0
-80 -59 94 0
-80 60 -94 0
-80 -60 94 0
-80 61 -93 0
-80 -61 93 0
-80 62 -93 0
-80 -62 93 0
-81 32 -95 0
-81 -32 95 0
-81 -33 0
-81 34 -95 0
-81 -34 95 0
-81 -35 0
-81 36 -95 0
-81 -36 95 0
-81 -37 0
-81 38 -95 0
-81 -38 95 0
-81 -39 0
-81 40 -95 0
-81 -40 95 0
-81 -41 0
-81 42 -95 0
-81 -42 95 0
-81 -43 0
-81 44 -95 0
-81 -44 95 0
-81 -45 0
-81 46 -95 0
-81 -46 95 0
-81 47 -94 0
-81 -47 94 0
-81 48 -93 0
-81 -48 93 0
-81 49 -94 0
-81 -49 94 0
-81 50 -93 0
-81 -50 93 0
-81 51 -94 0
-81 -51 94 0
-81 52 -93 0
-81 -52 93 0
-81 53 -94 0
-81 -53 94 0
-81 54 -93 0
-81 -54 93 0
-81 55 -94 0
-81 -55 94 0
-81 56 -93 0
-81 -56 93 0
-81 57 -94 0
-81 -57 94 0
-81 58 -93 0
-81 -58 93 0
-81 59 -94 0
-81 -59 94 0
-81 60 -93 0
-81 -60 93 0
-81 61 -94 0
-81 -61 94 0
-81 62 -93 0
-81 -62 93 0
-82 32 -95 0
-82 -32 95 0
-82 -33 0
-82 34 -95 0
-82 -34 95 0
-82 -35 0
-82 36 -95 0
-82 -36 95 0
-82 -37 0
-82 38 -95 0
-82 -38 95 0
-82 39 -94 0
-82 -39 94 0
-82 40 -93 0
-82 -40 93 0
-82 41 -94 0
-82 -41 94 0
-82 42 -93 0
-82 -42 93 0
-82 43 -94 0
-82 -43 94 0
-82 44 -93 0
-82 -44 93 0
-82 45 -94 0
-82 -45 94 0
-82 46 -93 0
-82 -46 93 0
-82 -47 0
-82 48 -95 0
-82 -48 95 0
-82 -49 0
-82 50 -95 0
-82 -50 95 0
-82 -51 0
-82 52 -95 0
-82 -52 95 0
-82 -53 0
-82 54 -95 0
-82 -54 95 0
-82 55 -94 0
-82 -55 94 0
-82 56 -93 0
-82 -56 93 0
-82 57 -94 0
-82 -57 94 0
-82 58 -93 0
-82 -58 93 0
-82 59 -94 0
-82 -59 94 0
-82 60 -93 0
-82 -60 93 0
-82 61 -94 0
-82 -61 94 0
-82 62 -93 0
-82 -62 93 0
-83 32 -95 0
-83 -32 95 0
-83 -33 0
-83 34 -95 0
-83 -34 95 0
-83 35 -94 0
-83 -35 94 0
-83 36 -93 0
-83 -36 93 0
-83 37 -94 0
-83 -37 94 0
-83 38 -93 0
-83 -38 93 0
-83 -39 0
-83 40 -95 0
-83 -40 95 0
-83 -41 0
-83 42 -95 0
-83 -42 95 0
-83 43 -94 0
-83 -43 94 0
-83 44 -93 0
-83 -44 93 0
-83 45 -94 0
-83 -45 94 0
-83 46 -93 0
-83 -46 93 0
-83 -47 0
-83 48 -95 0
-83 -48 95 0
-83 -49 0
-83 50 -95 0
-83 -50 95 0
-83 51 -94 0
-83 -51 94 0
-83 52 -93 0
-83 -52 93 0
-83 53 -94 0
-83 -53 94 0
-83 54 -93 0
-83 -54 93 0
-83 -55 0
-83 56 -95 0
-83 -56 95 0
-83 -57 0
-83 58 -95 0
-83 -58 95 0
-83 59 -94 0
-83 -59 94 0
-83 60 -93 0
-83 -60 93 0
-83 61 -94 0
-83 -61 94 0
-83 62 -93 0
-83 -62 93 0
-84 32 -95 0
-84 -32 95 0
-84 33 -94 0
-84 -33 94 0
-84 34 -93 0
-84 -34 93 0
-84 -35 0
-84 36 -95 0
-84 -36 95 0
-84 37 -94 0
-84 -37 94 0
-84 38 -93 0
-84 -38 93 0
-84 -39 0
-84 40 -95 0
-84 -40 95 0
-84 41 -94 0
-84 -41 94 0
-84 42 -93 0
-84 -42 93 0
-84 -43 0
-84 44 -95 0
-84 -44 95 0
-84 45 -94 0
-84 -45 94 0
-84 46 -93 0
-84 -46 93 0
-84 -47 0
-84 48 -95 0
-84 -48 95 0
-84 49 -94 0
-84 -49 94 0
-84 50 -93 0
-84 -50 93 0
-84 -51 0
-84 52 -95 0
-84 -52 95 0
-84 53 -94 0
-84 -53 94 0
-84 54 -93 0
-84 -54 93 0
-84 -55 0
-84 56 -95 0
-84 -56 95 0
-84 57 -94 0
-84 -57 94 0
-84 58 -93 0
-84 -58 93 0
-84 -59 0
-84 60 -95 0
-84 -60 95 0
-84 61 -94 0
-84 -61 94 0
-84 62 -93 0
-84 -62 93 0
-101 -32 0
-101 -33 0
-101 -34 0
-101 -35 0
-101 -36 0
-101 -37 0
-101 -38 0
-101 39 -95 0
-101 -39 95 0
-101 40 -95 0
-101 -40 95 0
-101 41 -95 0
-101 -41 95 0
-101 -42 0
-101 43 -95 0
-101 -43 95 0
-101 -44 0
-101 -45 0
-101 46 -95 0
-101 -46 95 0
-101 47 -94 0
-101 -47 94 0
-101 48 -94 0
-101 -48 94 0
-101 49 -94 0
-101 -49 94 0
-101 50 -94 0
-101 -50 94 0
-101 51 -94 0
-101 -51 94 0
-101 52 -94 0
-101 -52 94 0
-101 53 -94 0
-101 -53 94 0
-101 54 -94 0
-101 -54 94 0
-101 55 -93 0
-101 -55 93 0
-101 56 -93 0
-101 -56 93 0
-101 57 -93 0
-101 -57 93 0
-101 58 -94 0
-101 -58 94 0
-101 59 -93 0
-101 -59 93 0
-101 60 -94 0
-101 -60 94 0
-101 61 -94 0
-101 -61 94 0
-101 62 -93 0
-101 -62 93 0
-102 -32 0
-102 -33 0
-102 -34 0
-102 -35 0
-102 -36 0
-102 -37 0
-102 -38 0
-102 39 -93 0
-102 -39 93 0
-102 40 -93 0
-102 -40 93 0
-102 41 -93 0
-102 -41 93 0
-102 42 -94 0
-102 -42 94 0
-102 43 -93 0
-102 -43 93 0
-102 44 -94 0
-102 -44 94 0
-102 45 -94 0
-102 -45 94 0
-102 46 -93 0
-102 -46 93 0
-102 -47 0
-102 -48 0
-102 -49 0
-102 -50 0
-102 -51 0
-102 -52 0
-102 -53 0
-102 -54 0
-102 55 -93 0
-102 -55 93 0
-102 56 -93 0
-102 -56 93 0
-102 57 -93 0
-102 -57 93 0
-102 58 -94 0
-102 -58 94 0
-102 59 -93 0
-102 -59 93 0
-102 60 -94 0
-102 -60 94 0
-102 61 -94 0
-102 -61 94 0
-102 62 -93 0
-102 -62 93 0
-103 -32 0
-103 -33 0
-103 -34 0
-103 35 -94 0
-103 -35 94 0
-103 36 -94 0
-103 -36 94 0
-103 37 -94 0
-103 -37 94 0
-103 38 -94 0
-103 -38 94 0
-103 39 -95 0
-103 -39 95 0
-103 40 -95 0
-103 -40 95 0
-103 41 -95 0
-103 -41 95 0
-103 -42 0
-103 43 -93 0
-103 -43 93 0
-103 44 -94 0
-103 -44 94 0
-103 45 -94 0
-103 -45 94 0
-103 46 -93 0
-103 -46 93 0
-103 -47 0
-103 -48 0
-103 -49 0
-103 -50 0
-103 51 -94 0
-103 -51 94 0
-103 52 -94 0
-103 -52 94 0
-103 53 -94 0
-103 -53 94 0
-103 54 -94 0
-103 -54 94 0
-103 55 -95 0
-103 -55 95 0
-103 56 -95 0
-103 -56 95 0
-103 57 -95 0
-103 -57 95 0
-103 -58 0
-103 59 -93 0
-103 -59 93 0
-103 60 -94 0
-103 -60 94 0
-103 61 -94 0
-103 -61 94 0
-103 62 -93 0
-103 -62 93 0
-104 -32 0
-104 33 -94 0
-104 -33 94 0
-104 34 -94 0
-104 -34 94 0
-104 -35 0
-104 -36 0
-104 37 -94 0
-104 -37 94 0
-104 38 -94 0
-104 -38 94 0
-104 39 -95 0
-104 -39 95 0
-104 40 -95 0
-104 -40 95 0
-104 41 -93 0
-104 -41 93 0
-104 42 -94 0
-104 -42 94 0
-104 43 -95 0
-104 -43 95 0
-104 -44 0
-104 45 -94 0
-104 -45 94 0
-104 46 -93 0
-104 -46 93 0
-104 -47 0
-104 -48 0
-104 49 -94 0
-104 -49 94 0
-104 50 -94 0
-104 -50 94 0
-104 -51 0
-104 -52 0
-104 53 -94 0
-104 -53 94 0
-104 54 -94 0
-104 -54 94 0
-104 55 -95 0
-104 -55 95 0
-104 56 -95 0
-104 -56 95 0
-104 57 -93 0
-104 -57 93 0
-104 58 -94 0
-104 -58 94 0
-104 59 -95 0
-104 -59 95 0
-104 -60 0
-104 61 -94 0
-104 -61 94 0
-104 62 -93 0
-104 -62 93 0
-105 32 -94 0
-105 -32 94 0
-105 -33 0
-105 34 -94 0
-105 -34 94 0
-105 -35 0
-105 36 -94 0
-105 -36 94 0
-105 -37 0
-105 38 -94 0
-105 -38 94 0
-105 39 -95 0
-105 -39 95 0
-105 40 -93 0
-105 -40 93 0
-105 41 -95 0
-105 -41 95 0
-105 42 -94 0
-105 -42 94 0
-105 43 -95 0
-105 -43 95 0
-105 44 -94 0
-105 -44 94 0
-105 -45 0
-105 46 -93 0
-105 -46 93 0
-105 -47 0
-105 48 -94 0
-105 -48 94 0
-105 -49 0
-105 50 -94 0
-105 -50 94 0
-105 -51 0
-105 52 -94 0
-105 -52 94 0
-105 -53 0
-105 54 -94 0
-105 -54 94 0
-105 55 -95 0
-105 -55 95 0
-105 56 -93 0
-105 -56 93 0
-105 57 -95 0
-105 -57 95 0
-105 58 -94 0
-105 -58 94 0
-105 59 -95 0
-105 -59 95 0
-105 60 -94 0
-105 -60 94 0
-105 -61 0
-105 62 -93 0
-105 -62 93 0
-85 32 -1 -95 0
-85 -32 -1 95 0
-85 -32 1 0
-85 33 -2 -95 0
-85 -33 -2 95 0
-85 -33 2 0
-85 34 -3 -95 0
-85 -34 -3 95 0
-85 -34 3 0
-85 35 -4 -95 0
-85 -35 -4 95 0
-85 -35 4 0
-85 36 -5 -95 0
-85 -36 -5 95 0
-85 -36 5 0
-85 37 -6 -95 0
-85 -37 -6 95 0
-85 -37 6 0
-85 38 -7 -95 0
-85 -38 -7 95 0
-85 -38 7 0
-85 39 -8 -95 0
-85 -39 -8 95 0
-85 -39 8 0
-85 40 -9 -95 0
-85 -40 -9 95 0
-85 -40 9 0
-85 41 -10 -95 0
-85 -41 -10 95 0
-85 -41 10 0
-85 42 -11 -95 0
-85 -42 -11 95 0
-85 -42 11 0
-85 43 -12 -95 0
-85 -43 -12 95 0
-85 -43 12 0
-85 44 -13 -95 0
-85 -44 -13 95 0
-85 -44 13 0
-85 45 -14 -95 0
-85 -45 -14 95 0
-85 -45 14 0
-85 46 -15 -95 0
-85 -46 -15 95 0
-85 -46 15 0
-85 47 16 -94 0
-85 47 -16 -93 0
-85 -47 16 94 0
-85 -47 -16 93 0
-85 48 17 -94 0
-85 48 -17 -93 0
-85 -48 17 94 0
-85 -48 -17 93 0
-85 49 18 -94 0
-85 49 -18 -93 0
-85 -49 18 94 0
-85 -49 -18 93 0
-85 50 19 -94 0
-85 50 -19 -93 0
-85 -50 19 94 0
-85 -50 -19 93 0
-85 51 20 -94 0
-85 51 -20 -93 0
-85 -51 20 94 0
-85 -51 -20 93 0
-85 52 21 -94 0
-85 52 -21 -93 0
-85 -52 21 94 0
-85 -52 -21 93 0
-85 53 22 -94 0
-85 53 -22 -93 0
-85 -53 22 94 0
-85 -53 -22 93 0
-85 54 23 -94 0
-85 54 -23 -93 0
-85 -54 23 94 0
-85 -54 -23 93 0
-85 55 24 -94 0
-85 55 -24 -93 0
-85 -55 24 94 0
-85 -55 -24 93 0
-85 56 25 -94 0
-85 56 -25 -93 0
-85 -56 25 94 0
-85 -56 -25 93 0
-85 57 26 -94 0
-85 57 -26 -93 0
-85 -57 26 94 0
-85 -57 -26 93 0
-85 58 27 -94 0
-85 58 -27 -93 0
-85 -58 27 94 0
-85 -58 -27 93 0
-85 59 28 -94 0
-85 59 -28 -93 0
-85 -59 28 94 0
-85 -59 -28 93 0
-85 60 29 -94 0
-85 60 -29 -93 0
-85 -60 29 94 0
-85 -60 -29 93 0
-85 61 30 -94 0
-85 61 -30 -93 0
-85 -61 30 94 0
-85 -61 -30 93 0
-85 62 31 -94 0
-85 62 -31 -93 0
-85 -62 31 94 0
-85 -62 -31 93 0
-86 32 -1 -95 0
-86 -32 -1 95 0
-86 -32 1 0
-86 33 -2 -95 0
-86 -33 -2 95 0
-86 -33 2 0
-86 34 -3 -95 0
-86 -34 -3 95 0
-86 -34 3 0
-86 35 -4 -95 0
-86 -35 -4 95 0
-86 -35 4 0
-86 36 -5 -95 0
-86 -36 -5 95 0
-86 -36 5 0
-86 37 -6 -95 0
-86 -37 -6 95 0
-86 -37 6 0
-86 38 -7 -95 0
-86 -38 -7 95 0
-86 -38 7 0
-86 39 8 -94 0
-86 39 -8 -93 0
-86 -39 8 94 0
-86 -39 -8 93 0
-86 40 9 -94 0
-86 40 -9 -93 0
-86 -40 9 94 0
-86 -40 -9 93 0
-86 41 10 -94 0
-86 41 -10 -93 0
-86 -41 10 94 0
-86 -41 -10 93 0
-86 42 11 -94 0
-86 42 -11 -93 0
-86 -42 11 94 0
-86 -42 -11 93 0
-86 43 12 -94 0
-86 43 -12 -93 0
-86 -43 12 94 0
-86 -43 -12 93 0
-86 44 13 -94 0
-86 44 -13 -93 0
-86 -44 13 94 0
-86 -44 -13 93 0
-86 45 14 -94 0
-86 45 -14 -93 0
-86 -45 14 94 0
-86 -45 -14 93 0
-86 46 15 -94 0
-86 46 -15 -93 0
-86 -46 15 94 0
-86 -46 -15 93 0
-86 47 -16 -95 0
-86 -47 -16 95 0
-86 -47 16 0
-86 48 -17 -95 0
-86 -48 -17 95 0
-86 -48 17 0
-86 49 -18 -95 0
-86 -49 -18 95 0
-86 -49 18 0
-86 50 -19 -95 0
-86 -50 -19 95 0
-86 -50 19 0
-86 51 -20 -95 0
-86 -51 -20 95 0
-86 -51 20 0
-86 52 -21 -95 0
-86 -52 -21 95 0
-86 -52 21 0
-86 53 -22 -95 0
-86 -53 -22 95 0
-86 -53 22 0
-86 54 -23 -95 0
-86 -54 -23 95 0
-86 -54 23 0
-86 55 24 -94 0
-86 55 -24 -93 0
-86 -55 24 94 0
-86 -55 -24 93 0
-86 56 25 -94 0
-86 56 -25 -93 0
-86 -56 25 94 0
-86 -56 -25 93 0
-86 57 26 -94 0
-86 57 -26 -93 0
-86 -57 26 94 0
-86 -57 -26 93 0
-86 58 27 -94 0
-86 58 -27 -93 0
-86 -58 27 94 0
-86 -58 -27 93 0
-86 59 28 -94 0
-86 59 -28 -93 0
-86 -59 28 94 0
-86 -59 -28 93 0
-86 60 29 -94 0
-86 60 -29 -93 0
-86 -60 29 94 0
-86 -60 -29 93 0
-86 61 30 -94 0
-86 61 -30 -93 0
-86 -61 30 94 0
-86 -61 -30 93 0
-86 62 31 -94 0
-86 62 -31 -93 0
-86 -62 31 94 0
-86 -62 -31 93 0
-87 32 -1 -95 0
-87 -32 -1 95 0
-87 -32 1 0
-87 33 -2 -95 0
-87 -33 -2 95 0
-87 -33 2 0
-87 34 -3 -95 0
-87 -34 -3 95 0
-87 -34 3 0
-87 35 4 -94 0
-87 35 -4 -93 0
-87 -35 4 94 0
-87 -35 -4 93 0
-87 36 5 -94 0
-87 36 -5 -93 0
-87 -36 5 94 0
-87 -36 -5 93 0
-87 37 6 -94 0
-87 37 -6 -93 0
-87 -37 6 94 0
-87 -37 -6 93 0
-87 38 7 -94 0
-87 38 -7 -93 0
-87 -38 7 94 0
-87 -38 -7 93 0
-87 39 -8 -95 0
-87 -39 -8 95 0
-87 -39 8 0
-87 40 -9 -95 0
-87 -40 -9 95 0
-87 -40 9 0
-87 41 -10 -95 0
-87 -41 -10 95 0
-87 -41 10 0
-87 42 -11 -95 0
-87 -42 -11 95 0
-87 -42 11 0
-87 43 12 -94 0
-87 43 -12 -93 0
-87 -43 12 94 0
-87 -43 -12 93 0
-87 44 13 -94 0
-87 44 -13 -93 0
-87 -44 13 94 0
-87 -44 -13 93 0
-87 45 14 -94 0
-87 45 -14 -93 0
-87 -45 14 94 0
-87 -45 -14 93 0
-87 46 15 -94 0
-87 46 -15 -93 0
-87 -46 15 94 0
-87 -46 -15 93 0
-87 47 -16 -95 0
-87 -47 -16 95 0
-87 -47 16 0
-87 48 -17 -95 0
-87 -48 -17 95 0
-87 -48 17 0
-87 49 -18 -95 0
-87 -49 -18 95 0
-87 -49 18 0
-87 50 -19 -95 0
-87 -50 -19 95 0
-87 -50 19 0
-87 51 20 -94 0
-87 51 -20 -93 0
-87 -51 20 94 0
-87 -51 -20 93 0
-87 52 21 -94 0
-87 52 -21 -93 0
-87 -52 21 94 0
-87 -52 -21 93 0
-87 53 22 -94 0
-87 53 -22 -93 0
-87 -53 22 94 0
-87 -53 -22 93 0
-87 54 23 -94 0
-87 54 -23 -93 0
-87 -54 23 94 0
-87 -54 -23 93 0
-87 55 -24 -95 0
-87 -55 -24 95 0
-87 -55 24 0
-87 56 -25 -95 0
-87 -56 -25 95 0
-87 -56 25 0
-87 57 -26 -95 0
-87 -57 -26 95 0
-87 -57 26 0
-87 58 -27 -95 0
-87 -58 -27 95 0
-87 -58 27 0
-87 59 28 -94 0
-87 59 -28 -93 0
-87 -59 28 94 0
-87 -59 -28 93 0
-87 60 29 -94 0
-87 60 -29 -93 0
-87 -60 29 94 0
-87 -60 -29 93 0
-87 61 30 -94 0
-87 61 -30 -93 0
-87 -61 30 94 0
-87 -61 -30 93 0
-87 62 31 -94 0
-87 62 -31 -93 0
-87 -62 31 94 0
-87 -62 -31 93 0
-88 32 -1 -95 0
-88 -32 -1 95 0
-88 -32 1 0
-88 33 2 -94 0
-88 33 -2 -93 0
-88 -33 2 94 0
-88 -33 -2 93 0
-88 34 3 -94 0
-88 34 -3 -93 0
-88 -34 3 94 0
-88 -34 -3 93 0
-88 35 -4 -95 0
-88 -35 -4 95 0
-88 -35 4 0
-88 36 -5 -95 0
-88 -36 -5 95 0
-88 -36 5 0
-88 37 6 -94 0
-88 37 -6 -93 0
-88 -37 6 94 0
-88 -37 -6 93 0
-88 38 7 -94 0
-88 38 -7 -93 0
-88 -38 7 94 0
-88 -38 -7 93 0
-88 39 -8 -95 0
-88 -39 -8 95 0
-88 -39 8 0
-88 40 -9 -95 0
-88 -40 -9 95 0
-88 -40 9 0
-88 41 10 -94 0
-88 41 -10 -93 0
-88 -41 10 94 0
-88 -41 -10 93 0
-88 42 11 -94 0
-88 42 -11 -93 0
-88 -42 11 94 0
-88 -42 -11 93 0
-88 43 -12 -95 0
-88 -43 -12 95 0
-88 -43 12 0
-88 44 -13 -95 0
-88 -44 -13 95 0
-88 -44 13 0
-88 45 14 -94 0
-88 45 -14 -93 0
-88 -45 14 94 0
-88 -45 -14 93 0
-88 46 15 -94 0
-88 46 -15 -93 0
-88 -46 15 94 0
-88 -46 -15 93 0
-88 47 -16 -95 0
-88 -47 -16 95 0
-88 -47 16 0
-88 48 -17 -95 0
-88 -48 -17 95 0
-88 -48 17 0
-88 49 18 -94 0
-88 49 -18 -93 0
-88 -49 18 94 0
-88 -49 -18 93 0
-88 50 19 -94 0
-88 50 -19 -93 0
-88 -50 19 94 0
-88 -50 -19 93 0
-88 51 -20 -95 0
-88 -51 -20 95 0
-88 -51 20 0
-88 52 -21 -95 0
-88 -52 -21 95 0
-88 -52 21 0
-88 53 22 -94 0
-88 53 -22 -93 0
-88 -53 22 94 0
-88 -53 -22 93 0
-88 54 23 -94 0
-88 54 -23 -93 0
-88 -54 23 94 0
-88 -54 -23 93 0
-88 55 -24 -95 0
-88 -55 -24 95 0
-88 -55 24 0
-88 56 -25 -95 0
-88 -56 -25 95 0
-88 -56 25 0
-88 57 26 -94 0
-88 57 -26 -93 0
-88 -57 26 94 0
-88 -57 -26 93 0
-88 58 27 -94 0
-88 58 -27 -93 0
-88 -58 27 94 0
-88 -58 -27 93 0
-88 59 -28 -95 0
-88 -59 -28 95 0
-88 -59 28 0
-88 60 -29 -95 0
-88 -60 -29 95 0
-88 -60 29 0
-88 61 30 -94 0
-88 61 -30 -93 0
-88 -61 30 94 0
-88 -61 -30 93 0
-88 62 31 -94 0
-88 62 -31 -93 0
-88 -62 31 94 0
-88 -62 -31 93 0
-89 32 1 -94 0
-89 32 -1 -93 0
-89 -32 1 94 0
-89 -32 -1 93 0
-89 33 -2 -95 0
-89 -33 -2 95 0
-89 -33 2 0
-89 34 3 -94 0
-89 34 -3 -93 0
-89 -34 3 94 0
-89 -34 -3 93 0
-89 35 -4 -95 0
-89 -35 -4 95 0
-89 -35 4 0
-89 36 5 -94 0
-89 36 -5 -93 0
-89 -36 5 94 0
-89 -36 -5 93 0
-89 37 -6 -95 0
-89 -37 -6 95 0
-89 -37 6 0
-89 38 7 -94 0
-89 38 -7 -93 0
-89 -38 7 94 0
-89 -38 -7 93 0
-89 39 -8 -95 0
-89 -39 -8 95 0
-89 -39 8 0
-89 40 9 -94 0
-89 40 -9 -93 0
-89 -40 9 94 0
-89 -40 -9 93 0
-89 41 -10 -95 0
-89 -41 -10 95 0
-89 -41 10 0
-89 42 11 -94 0
-89 42 -11 -93 0
-89 -42 11 94 0
-89 -42 -11 93 0
-89 43 -12 -95 0
-89 -43 -12 95 0
-89 -43 12 0
-89 44 13 -94 0
-89 44 -13 -93 0
-89 -44 13 94 0
-89 -44 -13 93 0
-89 45 -14 -95 0
-89 -45 -14 95 0
-89 -45 14 0
-89 46 15 -94 0
-89 46 -15 -93 0
-89 -46 15 94 0
-89 -46 -15 93 0
-89 47 -16 -95 0
-89 -47 -16 95 0
-89 -47 16 0
-89 48 17 -94 0
-89 48 -17 -93 0
-89 -48 17 94 0
-89 -48 -17 93 0
-89 49 -18 -95 0
-89 -49 -18 95 0
-89 -49 18 0
-89 50 19 -94 0
-89 50 -19 -93 0
-89 -50 19 94 0
-89 -50 -19 93 0
-89 51 -20 -95 0
-89 -51 -20 95 0
-89 -51 20 0
-89 52 21 -94 0
-89 52 -21 -93 0
-89 -52 21 94 0
-89 -52 -21 93 0
-89 53 -22 -95 0
-89 -53 -22 95 0
-89 -53 22 0
-89 54 23 -94 0
-89 54 -23 -93 0
-89 -54 23 94 0
-89 -54 -23 93 0
-89 55 -24 -95 0
-89 -55 -24 95 0
-89 -55 24 0
-89 56 25 -94 0
-89 56 -25 -93 0
-89 -56 25 94 0
-89 -56 -25 93 0
-89 57 -26 -95 0
-89 -57 -26 95 0
-89 -57 26 0
-89 58 27 -94 0
-89 58 -27 -93 0
-89 -58 27 94 0
-89 -58 -27 93 0
-89 59 -28 -95 0
-89 -59 -28 95 0
-89 -59 28 0
-89 60 29 -94 0
-89 60 -29 -93 0
-89 -60 29 94 0
-89 -60 -29 93 0
-89 61 -30 -95 0
-89 -61 -30 95 0
-89 -61 30 0
-89 62 31 -94 0
-89 62 -31 -93 0
-89 -62 31 94 0
-89 -62 -31 93 0
-106 32 -1 -95 0
-106 -32 -1 95 0
-106 -32 1 0
-106 33 -2 -95 0
-106 -33 -2 95 0
-106 -33 2 0
-106 34 -3 -95 0
-106 -34 -3 95 0
-106 -34 3 0
-106 35 -4 -95 0
-106 -35 -4 95 0
-106 -35 4 0
-106 36 -5 -95 0
-106 -36 -5 95 0
-106 -36 5 0
-106 37 -6 -95 0
-106 -37 -6 95 0
-106 -37 6 0
-106 38 -7 -95 0
-106 -38 -7 95 0
-106 -38 7 0
-106 39 8 -94 0
-106 39 -8 -93 0
-106 -39 8 94 0
-106 -39 -8 93 0
-106 40 9 -94 0
-106 40 -9 -93 0
-106 -40 9 94 0
-106 -40 -9 93 0
-106 41 10 -94 0
-106 41 -10 -93 0
-106 -41 10 94 0
-106 -41 -10 93 0
-106 42 -11 -95 0
-106 -42 -11 95 0
-106 -42 11 0
-106 43 12 -94 0
-106 43 -12 -93 0
-106 -43 12 94 0
-106 -43 -12 93 0
-106 44 -13 -95 0
-106 -44 -13 95 0
-106 -44 13 0
-106 45 -14 -95 0
-106 -45 -14 95 0
-106 -45 14 0
-106 46 15 -94 0
-106 46 -15 -93 0
-106 -46 15 94 0
-106 -46 -15 93 0
-106 47 -16 -95 0
-106 -47 -16 95 0
-106 -47 16 0
-106 48 -17 -95 0
-106 -48 -17 95 0
-106 -48 17 0
-106 49 -18 -95 0
-106 -49 -18 95 0
-106 -49 18 0
-106 50 -19 -95 0
-106 -50 -19 95 0
-106 -50 19 0
-106 51 -20 -95 0
-106 -51 -20 95 0
-106 -51 20 0
-106 52 -21 -95 0
-106 -52 -21 95 0
-106 -52 21 0
-106 53 -22 -95 0
-106 -53 -22 95 0
-106 -53 22 0
-106 54 -23 -95 0
-106 -54 -23 95 0
-106 -54 23 0
-106 55 24 -94 0
-106 55 -24 -93 0
-106 -55 24 94 0
-106 -55 -24 93 0
-106 56 25 -94 0
-106 56 -25 -93 0
-106 -56 25 94 0
-106 -56 -25 93 0
-106 57 26 -94 0
-106 57 -26 -93 0
-106 -57 26 94 0
-106 -57 -26 93 0
-106 58 -27 -95 0
-106 -58 -27 95 0
-106 -58 27 0
-106 59 28 -94 0
-106 59 -28 -93 0
-106 -59 28 94 0
-106 -59 -28 93 0
-106 60 -29 -95 0
-106 -60 -29 95 0
-106 -60 29 0
-106 61 -30 -95 0
-106 -61 -30 95 0
-106 -61 30 0
-106 62 31 -94 0
-106 62 -31 -93 0
-106 -62 31 94 0
-106 -62 -31 93 0
-63 -1 0
-63 -2 0
-63 -3 0
-63 -4 0
-63 -5 0
-63 -6 0
-63 -7 0
-63 8 0
-63 9 0
-63 10 0
-63 -11 0
-63 12 0
-63 -13 0
-63 -14 0
-63 15 0
-63 16 0
-63 17 0
-63 18 0
-63 -19 0
-63 20 0
-63 -21 0
-63 -22 0
-63 23 0
-63 24 0
-63 25 0
-63 26 0
-63 -27 0
-63 28 0
-63 -29 0
-63 -30 0
-63 31 0
-64 -32 0
-64 -33 0
-64 -34 0
-64 -35 0
-64 -36 0
-64 -37 0
-64 -38 0
-64 39 0
-64 40 0
-64 41 0
-64 -42 0
-64 43 0
-64 -44 0
-64 -45 0
-64 46 0
-64 47 0
-64 48 0
-64 49 0
-64 -50 0
-64 51 0
-64 -52 0
-64 -53 0
-64 54 0
-64 55 0
-64 56 0
-64 57 0
-64 -58 0
-64 59 0
-64 -60 0
-64 -61 0
-64 62 0
63 64 0
65 66 67 68 69 70 71 72 73 74 96 97 98 99 100 0
75 76 77 78 79 80 81 82 83 84 101 102 103 104 105 85 86 87 88 89 106 0
